CMD:
./solvers/bin/cadical --plain --no-reduce -t 1600 ./data/cnfs//vis_arrays_buf_bug/vis_arrays_buf_bug.12.cnf

c --- [ banner ] -------------------------------------------------------------
c 
c CaDiCaL SAT Solver
c Copyright (c) 2016-2024
c A. Biere, M. Fleury, N. Froleyks, K. Fazekas, F. Pollitt, T. Faller
c JKU Linz, University of Freiburg, TU Wien
c 
c Version 2.1.3 5296d3d2a9bf48c154ab2acb5e44625776d821bf
c g++ (Gentoo 12.3.1_p20230526 p2) 12.3.1 20230526 -Wall -Wextra -O3 -DNDEBUG
c Sat Aug 9 07:26:21 PDT 2025 Linux cedar2.int.cedar.computecanada.ca 5.14.0-362.24.2.el9_3.x86_64 x86_64
c 
c --- [ limit ] --------------------------------------------------------------
c 
c setting time limit to 1600 seconds real time (due to '-t 1600')
c 
c --- [ parsing input ] ------------------------------------------------------
c 
c reading DIMACS file from './data/cnfs//vis_arrays_buf_bug/vis_arrays_buf_bug.12.cnf'
c opening file to read './data/cnfs//vis_arrays_buf_bug/vis_arrays_buf_bug.12.cnf'
c found 'p cnf 4047 11488' header
c parsed 11488 clauses in 0.00 seconds process time
c 
c --- [ options ] ------------------------------------------------------------
c 
c   --compact=false                (different from default 'true')
c   --decompose=false              (different from default 'true')
c   --deduplicate=false            (different from default 'true')
c   --elim=false                   (different from default 'true')
c   --probe=false                  (different from default 'true')
c   --reduce=false                 (different from default 'true')
c   --subsume=false                (different from default 'true')
c   --ternary=false                (different from default 'true')
c   --transred=false               (different from default 'true')
c   --vivify=false                 (different from default 'true')
c 
c --- [ solving ] ------------------------------------------------------------
c 
c time measured in process time since initialization
c 
c  seconds  reductions  redundant  irredundant
c         MB    restarts       trail     variables
c          level   conflicts       glue       remaining
c 
c *  0.00  6  0 0   0    0    0  0% 0 11210 3876 96%
c {  0.00  6  0 0   0    0    0  0% 0 11210 3876 96%
c i  0.00  6 50 0   0   20   19 61% 2 11210 3866 96%
c i  0.00  6 52 0   0   24   21 65% 2 11210 3848 95%
c i  0.00  6 52 0   0   25   21 66% 2 11210 3847 95%
c i  0.00  6 53 0   0   35   28 69% 1 11210 3832 95%
c i  0.00  6 54 0   0   37   29 69% 1 11210 3820 94%
c i  0.00  6 54 0   0   41   32 70% 1 11210 3816 94%
c i  0.00  6 54 0   0   48   37 70% 2 11210 3813 94%
c i  0.00  6 53 0   0   51   39 69% 2 11210 3807 94%
c i  0.00  6 53 0   0   52   39 69% 2 11210 3793 94%
c i  0.00  6 53 0   0   56   40 70% 2 11210 3740 92%
c i  0.00  6 53 0   0   60   42 70% 2 11210 3736 92%
c i  0.00  6 53 0   0   65   46 69% 1 11210 3718 92%
c i  0.00  6 53 0   0   66   46 69% 1 11210 3708 92%
c i  0.00  6 53 0   0   68   47 69% 1 11210 3702 91%
c i  0.00  6 51 0   0   90   65 69% 1 11210 3690 91%
c i  0.00  6 51 0   0   96   69 69% 1 11210 3686 91%
c i  0.00  6 50 0   0  102   74 68% 1 11210 3654 90%
c i  0.00  6 50 0   0  105   76 68% 1 11210 3653 90%
c 
c  seconds  reductions  redundant  irredundant
c         MB    restarts       trail     variables
c          level   conflicts       glue       remaining
c 
c i  0.00  6 50 0   0  106   76 68% 1 11210 3652 90%
c i  0.00  6 50 0   0  107   76 68% 1 11210 3639 90%
c i  0.00  6 50 0   0  108   76 68% 1 11210 3634 90%
c i  0.00  6 50 0   0  109   76 67% 1 11210 3629 90%
c i  0.01  6 50 0   0  110   76 67% 1 11210 3624 90%
c i  0.01  6 49 0   0  120   85 67% 1 11210 3623 90%
c i  0.01  6 47 0   1  135   98 64% 1 11210 3609 89%
c i  0.01  6 44 0   6  150  111 61% 2 11210 3594 89%
c i  0.01  6 43 0   6  151  111 60% 1 11210 3586 89%
c i  0.01  6 43 0   6  152  111 60% 1 11210 3579 88%
c i  0.01  6 43 0   6  153  111 60% 1 11210 3578 88%
c i  0.01  6 42 0   6  156  112 59% 1 11210 3561 88%
c i  0.01  6 42 0   6  161  116 58% 1 11210 3560 88%
c i  0.01  6 41 0   6  162  116 58% 1 11210 3556 88%
c i  0.01  6 41 0   6  164  117 58% 1 11210 3551 88%
c i  0.01  6 41 0   6  170  121 58% 1 11210 3550 88%
c i  0.01  6 41 0   7  174  123 58% 1 11210 3532 87%
c i  0.01  6 42 0  11  191  139 57% 2 11210 3525 87%
c i  0.01  6 37 0  28  252  195 53% 2 11210 3524 87%
c i  0.01  6 38 0  30  261  202 53% 2 11210 3523 87%
c 
c  seconds  reductions  redundant  irredundant
c         MB    restarts       trail     variables
c          level   conflicts       glue       remaining
c 
c i  0.01  6 38 0  30  265  201 53% 2 11210 3522 87%
c i  0.01  6 37 0  31  266  201 52% 2 11210 3521 87%
c i  0.01  6 37 0  31  267  201 52% 2 11210 3520 87%
c i  0.01  6 37 0  31  268  201 52% 2 11210 3519 87%
... skipped 78 lines ...
c i  0.02  6 41 0  85  687  521 53% 2 11210 3216 79%
c i  0.02  6 40 0  85  698  531 53% 2 11210 3215 79%
c i  0.02  6 40 0  96  743  574 54% 2 11210 3209 79%
c i  0.02  6 40 0  97  748  577 54% 2 11210 3194 79%
c i  0.02  6 40 0 102  771  597 53% 3 11210 3190 79%
c i  0.02  6 39 0 132  889  699 54% 3 11210 3186 79%
c i  0.02  6 38 0 148  959  761 53% 3 11210 3177 79%
c i  0.02  6 38 0 158  993  792 53% 3 11210 3166 78%
c }  0.02  6 37 0 159 1007  804 53% 3 11210 3166 78%
c [  0.02  6  0 0 159 1007  804  0% 0 11210 3166 78%
c O  0.02  6 74 0 159 1008  805 85% 4 11210 3166 78%
c i  0.02  6 73 0 159 1052  843 77% 5 11210 3160 78%
c i  0.02  6 73 0 159 1057  846 77% 6 11210 3154 78%
c 
c  seconds  reductions  redundant  irredundant
c         MB    restarts       trail     variables
c          level   conflicts       glue       remaining
c 
c i  0.03  6 68 0 159 1104  888 74% 5 11210 3150 78%
c i  0.03  6 63 0 159 1253 1023 71% 7 11210 3138 78%
c i  0.03  6 59 0 159 1412 1162 69% 7 11210 3135 77%
c i  0.03  6 58 0 159 1469 1214 68% 7 11210 3124 77%
c i  0.05  6 52 0 159 1912 1620 65% 7 11210 3123 77%
c i  0.06  6 41 0 160 2420 2077 57% 6 11210 3119 77%
c i  0.06  6 40 0 160 2422 2078 57% 6 11210 3110 77%
c ]  0.07  6 33 0 160 3009 2546 54% 7 11210 3110 77%
c {  0.07  6 37 0 160 3009 2546 53% 3 11210 3110 77%
c F  0.07  6 37 0 161 3010 2547 53% 3 11210 3110 77%
c i  0.07  7 36 0 177 3077 2605 53% 3 11210 3109 77%
c i  0.07  7 36 0 183 3097 2623 53% 3 11210 3094 76%
c i  0.08  7 34 0 195 3150 2666 52% 3 11210 3082 76%
c i  0.08  7 34 0 195 3151 2666 52% 3 11210 2873 71%
c i  0.08  7 28 0 291 3542 2982 50% 4 11210 2864 71%
c i  0.09  7 27 0 324 3678 3099 49% 4 11210 2863 71%
c i  0.11  7 23 0 447 4361 3658 50% 5 11210 2813 70%
c i  0.11  7 22 0 472 4518 3754 50% 5 11210 2797 69%
c i  0.11  7 22 0 472 4530 3764 50% 5 11210 2769 68%
c i  0.11  7 21 0 472 4613 3807 50% 5 11210 2747 68%
c 
c  seconds  reductions  redundant  irredundant
c         MB    restarts       trail     variables
c          level   conflicts       glue       remaining
c 
c i  0.11  7 21 0 472 4614 3807 50% 5 11210 2728 67%
c i  0.12  7 21 0 472 4644 3825 50% 5 11210 2693 67%
c i  0.12  7 21 0 472 4660 3831 50% 5 11210 2674 66%
c }  0.12  7 21 0 472 4677 3836 50% 4 11210 2464 61%
c 0  0.12  7 21 0 472 4677 3836 50% 4 11210 2464 61%
c 
c --- [ result ] -------------------------------------------------------------
c 
s UNSATISFIABLE
c 
c --- [ run-time profiling ] -------------------------------------------------
c 
c process time taken by individual solving procedures
c (percentage relative to process time for solving)
c 
c         0.11   99.94% search
c         0.06   57.06% unstable
c         0.05   42.50% stable
c         0.00    1.87% parse
c         0.00    0.35% lucky
c         0.00    0.00% simplify
c   =================================
c         0.11   97.86% solve
c 
c last line shows process time for solving
c (percentage relative to total process time)
c 
c --- [ statistics ] ---------------------------------------------------------
c 
c chronological:              1339        28.63 %  of conflicts
c conflicts:                  4677     41157.37    per second
c decisions:                 14453    127185.69    per second
c fixed:                      1575        38.92 %  of all variables
c learned:                    4544        97.16 %  per conflict
c learned_lits:              91132       100.00 %  learned literals
c minimized:                     0         0.00 %  learned literals
c shrunken:                  17963        19.71 %  learned literals
c minishrunken:              18175        19.94 %  learned literals
c otfs:                         41         0.88 %  of conflict
c propagations:            1258901        11.08 M  per second
c rephased:                      2      2338.50    interval
c restarts:                    472         9.91    interval
c stabilizing:                   1        42.78 %  of conflicts
c subsumed:                    560         3.59 %  of all clauses
c strengthened:                 40         0.26 %  of all clauses
c 
c seconds are measured in process time for solving
c 
c --- [ resources ] ----------------------------------------------------------
c 
c total process time since initialization:         0.12    seconds
c total real time since initialization:            0.12    seconds
c maximum resident set size of process:           29.34    MB
c 
c --- [ shutting down ] ------------------------------------------------------
c 
c exit 20
